\ENCODING=ISO-8859-1
\Problem name: instances

Maximize
 obj:
Subject To
 c1: 4 x1 + 213 x2 + 375 x3 + 435 x4 + 52 x5 + 591 x6 + 560 x7 + 498 x8
     + 819 x9 + 73 x10 + 211 x11 + 409 x12 + 901 x13 + 407 x14 + 981 x15
     + 112 x16 + 168 x17 + 926 x18 + 805 x19 + 612 x20 + 327 x21 + 79 x22
     + 788 x23 + 254 x24 + 972 x25 + 839 x26 + 254 x27 + 544 x28 + 797 x29
     + 133 x30 + 173 x31 + 801 x32 + 345 x33 + 548 x34 + 235 x35 + 397 x36
     + 138 x37 + 795 x38 + 894 x39 + 956 x40 + 867 x41 + 105 x42 + 365 x43
     + 768 x44 + 511 x45 + 345 x46 + 879 x47 + 679 x48 + 271 x49 + 683 x50
     + 291 x51 + 598 x52 + 762 x53 + 78 x54 + 851 x55 + 733 x56 + 917 x57
     + 105 x58 + 277 x59 + 714 x60 + 237 x61 + 450 x62 + 514 x63 + 582 x64
     + 997 x65 + 748 x66 + 979 x67 + 134 x68 + 543 x69 + 873 x70 + 90 x71
     + 410 x72 + 977 x73 + 454 x74 + 177 x75 + 488 x76 + 799 x77 + 56 x78
     + 167 x79 + 69 x80 + 738 x81 + 457 x82 + 666 x83 + 499 x84 + 535 x85
     + 517 x86 + 232 x87 + 451 x88 + 622 x89 + 508 x90 + 164 x91 + 858 x92
     + 957 x93 + 678 x94 + 440 x95 + 953 x96 + 425 x97 + 419 x98 + 87 x99
     + 968 x100 <= 25569
Bounds
 0 <= x1 <= 1
 0 <= x2 <= 1
 0 <= x3 <= 1
 0 <= x4 <= 1
 0 <= x5 <= 1
 0 <= x6 <= 1
 0 <= x7 <= 1
 0 <= x8 <= 1
 0 <= x9 <= 1
 0 <= x10 <= 1
 0 <= x11 <= 1
 0 <= x12 <= 1
 0 <= x13 <= 1
 0 <= x14 <= 1
 0 <= x15 <= 1
 0 <= x16 <= 1
 0 <= x17 <= 1
 0 <= x18 <= 1
 0 <= x19 <= 1
 0 <= x20 <= 1
 0 <= x21 <= 1
 0 <= x22 <= 1
 0 <= x23 <= 1
 0 <= x24 <= 1
 0 <= x25 <= 1
 0 <= x26 <= 1
 0 <= x27 <= 1
 0 <= x28 <= 1
 0 <= x29 <= 1
 0 <= x30 <= 1
 0 <= x31 <= 1
 0 <= x32 <= 1
 0 <= x33 <= 1
 0 <= x34 <= 1
 0 <= x35 <= 1
 0 <= x36 <= 1
 0 <= x37 <= 1
 0 <= x38 <= 1
 0 <= x39 <= 1
 0 <= x40 <= 1
 0 <= x41 <= 1
 0 <= x42 <= 1
 0 <= x43 <= 1
 0 <= x44 <= 1
 0 <= x45 <= 1
 0 <= x46 <= 1
 0 <= x47 <= 1
 0 <= x48 <= 1
 0 <= x49 <= 1
 0 <= x50 <= 1
 0 <= x51 <= 1
 0 <= x52 <= 1
 0 <= x53 <= 1
 0 <= x54 <= 1
 0 <= x55 <= 1
 0 <= x56 <= 1
 0 <= x57 <= 1
 0 <= x58 <= 1
 0 <= x59 <= 1
 0 <= x60 <= 1
 0 <= x61 <= 1
 0 <= x62 <= 1
 0 <= x63 <= 1
 0 <= x64 <= 1
 0 <= x65 <= 1
 0 <= x66 <= 1
 0 <= x67 <= 1
 0 <= x68 <= 1
 0 <= x69 <= 1
 0 <= x70 <= 1
 0 <= x71 <= 1
 0 <= x72 <= 1
 0 <= x73 <= 1
 0 <= x74 <= 1
 0 <= x75 <= 1
 0 <= x76 <= 1
 0 <= x77 <= 1
 0 <= x78 <= 1
 0 <= x79 <= 1
 0 <= x80 <= 1
 0 <= x81 <= 1
 0 <= x82 <= 1
 0 <= x83 <= 1
 0 <= x84 <= 1
 0 <= x85 <= 1
 0 <= x86 <= 1
 0 <= x87 <= 1
 0 <= x88 <= 1
 0 <= x89 <= 1
 0 <= x90 <= 1
 0 <= x91 <= 1
 0 <= x92 <= 1
 0 <= x93 <= 1
 0 <= x94 <= 1
 0 <= x95 <= 1
 0 <= x96 <= 1
 0 <= x97 <= 1
 0 <= x98 <= 1
 0 <= x99 <= 1
 0 <= x100 <= 1
Binaries
 x1  x2  x3  x4  x5  x6  x7  x8  x9  x10  x11  x12  x13  x14  x15  x16  x17 
 x18  x19  x20  x21  x22  x23  x24  x25  x26  x27  x28  x29  x30  x31  x32 
 x33  x34  x35  x36  x37  x38  x39  x40  x41  x42  x43  x44  x45  x46  x47 
 x48  x49  x50  x51  x52  x53  x54  x55  x56  x57  x58  x59  x60  x61  x62 
 x63  x64  x65  x66  x67  x68  x69  x70  x71  x72  x73  x74  x75  x76  x77 
 x78  x79  x80  x81  x82  x83  x84  x85  x86  x87  x88  x89  x90  x91  x92 
 x93  x94  x95  x96  x97  x98  x99  x100 
End
